
%FILE DATA:	Soccer Computational Problem for MiniZinc Models	%
%AUTHOR:	Jack Wall	%
%CONTACT:  	116397063@umail.ucc.ie			%
%LAST UPDATE:	03/03/2020, 12:29:48						%
%DESCRIPTION: 	50 games played with 40 games left				%


n=10; %number of teams

%Games to play
games=[|6,1|5,2|3,7|5,9|4,6|5,10|3,2|10,3|4,3|3,6|3,5|9,5|7,5|3,1|7,3|9,2|8,4|5,8|7,9|10,8|8,10|10,4|1,9|4,10|10,9|2,6|4,2|9,8|8,7|5,7|6,9|8,6|8,3|10,6|2,5|10,2|6,3|10,7|7,1|2,9|];

%Initial points
iPoints=[25,13,12,15,9,14,13,14,10,11];

%POSITION CONSTRAINTS
% [|teamID, operator, position|...]
% operators index:
%  1 for =  operator
%  2 for >  operator
%  3 for >= operator
%  4 for <  operator
%  5 for <= operator
positionConstraints=[|7,3,1|1,1,2|5,2,2|];